120
1000
200
199
199
199
199
198
194
194
194
193
192
192
192
191
190
190
190
188
188
187
187
187
186
186
186
186
185
185
185
185
185
185
184
183
183
183
183
183
183
183
182
182
182
181
180
179
179
179
179
179
178
178
178
178
177
176
176
176
176
175
175
175
175
174
174
173
173
172
172
172
172
171
170
170
170
168
168
168
168
166
166
166
165
164
164
163
162
162
162
162
161
161
160
158
158
157
157
157
157
157
157
157
157
156
156
156
155
155
154
154
154
153
152
152
151
151
151
150
150
150
